10	5
0	1	1
1	3	2	8	7
2	0
3	2	5	9
4	1	6
5	2	10	11
6	1	11
7	1	11
8	1	11
9	1	11
10	1	11
11	0
0	0	0	0	0	0	0
1	5	0	3	3	0	0
2	3	0	0	5	0	0
3	1	0	0	5	0	0
4	4	3	4	2	2	4
5	9	0	0	2	0	0
6	3	3	0	5	0	0
7	4	0	3	3	0	0
8	7	1	0	5	4	0
9	3	3	1	2	0	1
10	4	1	2	4	2	0
11	0	0	0	0	0	0
3	4	5	5	5
